

******************************************************************************
This program contains Ipopt, a library for large-scale nonlinear optimization.
 Ipopt is released as open source code under the Eclipse Public License (EPL).
         For more information visit http://projects.coin-or.org/Ipopt
******************************************************************************

This is Ipopt version 3.12.8, running with linear solver mumps.
NOTE: Other linear solvers might be more efficient (see Ipopt documentation).

Number of nonzeros in equality constraint Jacobian...:       43
Number of nonzeros in inequality constraint Jacobian.:        0
Number of nonzeros in Lagrangian Hessian.............:       11

Total number of variables............................:       17
                     variables with only lower bounds:        6
                variables with lower and upper bounds:        0
                     variables with only upper bounds:        0
Total number of equality constraints.................:       11
Total number of inequality constraints...............:        0
        inequality constraints with only lower bounds:        0
   inequality constraints with lower and upper bounds:        0
        inequality constraints with only upper bounds:        0

iter    objective    inf_pr   inf_du lg(mu)  ||d||  lg(rg) alpha_du alpha_pr  ls
   0  5.9999940e-02 1.00e+00 0.00e+00  -1.0 0.00e+00    -  0.00e+00 0.00e+00   0
   1  6.4547307e-02 9.17e-01 4.19e-01  -1.7 4.84e-01  -4.0 1.06e-01 7.58e-02h  1
   2  2.2928062e-01 2.79e-01 7.31e-01  -1.7 4.65e-01  -4.5 1.00e+00 5.00e-01h  2
   3  2.6975041e-01 3.68e-01 4.38e-01  -1.7 3.41e-01  -5.0 1.00e+00 1.00e+00h  1
   4  1.8958240e-01 8.54e-02 1.74e-01  -1.7 1.82e-01  -5.4 1.00e+00 1.00e+00h  1
   5  9.6739791e-02 1.59e-03 3.05e-02  -2.5 2.73e-02  -5.9 1.00e+00 1.00e+00h  1
   6  9.7486300e-02 3.36e-05 2.50e-04  -2.5 2.97e-03  -6.4 1.00e+00 1.00e+00h  1
   7  8.4033794e-02 6.71e-06 2.44e-05  -3.8 2.89e-03  -6.9 1.00e+00 1.00e+00f  1
   8  8.3342329e-02 3.73e-08 1.25e-07  -5.7 1.71e-04  -7.3 1.00e+00 1.00e+00h  1
   9  8.3333286e-02 3.91e-12 1.34e-11  -8.6 2.06e-06  -7.8 1.00e+00 1.00e+00h  1

Number of Iterations....: 9

                                   (scaled)                 (unscaled)
Objective...............:   8.3333285837296781e-02    8.3333285837296781e-02
Dual infeasibility......:   1.3449229812226265e-11    1.3449229812226265e-11
Constraint violation....:   3.9125369610815142e-12    3.9125369610815142e-12
Complementarity.........:   2.5315639709106316e-09    2.5315639709106316e-09
Overall NLP error.......:   2.5315639709106316e-09    2.5315639709106316e-09


Number of objective function evaluations             = 12
Number of objective gradient evaluations             = 10
Number of equality constraint evaluations            = 12
Number of inequality constraint evaluations          = 0
Number of equality constraint Jacobian evaluations   = 10
Number of inequality constraint Jacobian evaluations = 0
Number of Lagrangian Hessian evaluations             = 9
Total CPU secs in IPOPT (w/o function evaluations)   =      0.000
Total CPU secs in NLP function evaluations           =      0.000

EXIT: Optimal Solution Found.
 
Ipopt 3.12.8: Optimal Solution Found
